p cnf 13 25
13 11 -1 0
-13 10 3 0
13 9 -7 0
13 -9 -3 0
13 -8 4 0
-13 8 1 0
13 -2 1 0
12 -8 -2 0
-12 7 6 0
12 -7 2 0
12 6 -5 0
-12 6 3 0
12 6 -3 0
11 -10 8 0
11 4 1 0
10 -9 -3 0
10 -8 4 0
10 -8 -1 0
-10 8 -1 0
-9 6 4 0
9 -4 1 0
8 -3 1 0
-7 6 -4 0
-6 5 4 0
-3 -2 1 0
